45 5 3 1 70 
71 67 94 96 54 
63 33 28 26 32 93 
39 36 38 41 40 35 37 
27 29 31 30 34 50 80 
59 75 97 74 
65 52 86 57 66 
69 98 88 53 
82 11 9 87 58 77 
83 23 21 19 18 48 25 
72 42 44 43 68 
61 81 
90 84 56 
92 95 62 76 22 49 20 24 
99 10 13 
14 47 73 79 78 55 
2 7 6 8 46 4 100 
12 15 16 17 60 
64 51 85 89 91 
